200
1000
300
300
299
299
298
297
295
295
294
294
293
289
288
287
285
284
284
282
281
279
277
276
276
275
274
274
272
272
270
269
267
264
263
263
261
260
260
260
258
255
255
255
255
254
253
250
247
247
247
246
245
245
244
243
241
241
241
241
239
238
238
238
238
238
238
237
235
234
233
232
231
231
229
229
229
228
228
226
225
225
223
221
220
219
217
216
216
216
213
210
208
208
207
205
202
201
201
201
201
199
199
198
196
195
195
194
194
193
191
189
189
188
188
187
186
184
184
182
182
181
179
178
177
175
174
173
172
171
171
171
169
169
168
168
167
167
166
165
164
163
162
158
158
157
157
156
153
153
151
151
148
147
147
146
146
145
145
144
144
144
143
141
139
138
137
136
134
134
129
126
125
125
123
122
122
121
121
121
120
120
118
118
116
114
113
112
111
110
108
108
107
107
106
106
103
103
103
103
102
102
